10893.7
0 4 94 76 24 41 79 82 10 95 11 54 27 48 61 92 74 91 55 73 57 13 22 44 99 67 60 85 2 20 70 69 59 86 56 52 84 62 66 19 34 5 6 15 21 50 98 39 89 16 43 8 7 25 26 9 28 45 14 93 3 51 97 71 40 17 18 38 65 36 63 88 32 49 90 42 81 35 87 64 53 83 37 1 29 75 68 46 47 72 30 23 58 33 78 80 12 96 31 77 
